100 10
421 94
540 597
853 677
633 599
960 670
637 377
720 460
440 422
398 762
94 583
772 520
338 310
500 608
610 380
799 507
272 657
526 501
488 617
109 393
344 207
435 569
594 328
675 375
342 603
69 406
296 490
321 809
701 481
228 488
481 401
686 229
189 342
499 497
507 273
286 417
725 554
287 451
506 687
354 66
213 574
380 344
478 669
337 349
268 260
794 734
695 758
373 757
176 490
860 353
120 455
458 295
473 463
472 91
276 317
531 671
736 629
477 645
463 637
383 687
327 628
229 250
405 170
696 397
514 590
544 414
706 574
670 603
311 753
96 393
341 905
550 534
612 387
416 556
176 689
565 706
624 766
339 544
21 564
245 651
54 292
570 660
318 551
741 522
934 743
745 174
617 477
287 745
607 422
299 700
822 441
698 529
736 445
569 507
866 597
770 635
273 312
319 480
111 275
422 555
577 937
